
%FILE DATA:	Soccer Computational Problem for MiniZinc Models	%
%AUTHOR:	Jack Wall	%
%CONTACT:  	116397063@umail.ucc.ie			%
%LAST UPDATE:	03/03/2020, 16:09:05						%
%DESCRIPTION: 	45 games played with 27 games left				%


n=9; %number of teams

%Games to play
games=[|1,6|1,4|4,5|8,5|9,3|8,9|3,5|5,8|1,3|2,9|3,7|8,6|1,8|7,9|9,6|2,1|4,6|4,7|3,1|7,1|9,1|6,5|5,3|6,8|7,4|3,2|6,1|];

%Initial points
iPoints=[16,18,13,15,12,13,13,16,8];

%POSITION CONSTRAINTS
% [|teamID, operator, position|...]
% operators index:
%  1 for =  operator
%  2 for >  operator
%  3 for >= operator
%  4 for <  operator
%  5 for <= operator
positionConstraints=[|1,4,2|2,2,1|6,3,3|4,1,4|];